1 1 1 0 0 0 0 1 1 0 1 1 
0 24 60 32 37 42 68 52 60 21 79 47 
24 0 20 45 73 35 51 36 77 58 41 28 
60 20 0 26 32 43 51 79 39 38 79 70 
32 45 26 0 70 55 21 38 37 65 75 45 
37 73 32 70 0 31 18 43 45 78 27 62 
42 35 43 55 31 0 45 63 70 46 16 54 
68 51 51 21 18 45 0 69 39 78 18 28 
52 36 79 38 43 63 69 0 17 67 28 58 
60 77 39 37 45 70 39 17 0 50 74 34 
21 58 38 65 78 46 78 67 50 0 15 46 
79 41 79 75 27 16 18 28 74 15 0 38 
47 28 70 45 62 54 28 58 34 46 38 0 
2 50
1P 2P 3P 4B 7B 12P 9P 8P 5B 6B 11P 10B = 296